150
water cluster, 50 molecules, seed 20260826
O 6.237651 6.096205 6.111601
H 5.858153 6.202351 6.983704
H 7.170452 5.954560 6.271812
O 3.212254 6.114040 6.077783
H 2.700627 6.878252 5.813081
H 3.869924 6.462623 6.679289
O 6.086049 3.211206 6.245863
H 5.783321 2.332538 6.474221
H 5.298246 3.666567 5.949447
O 6.297500 6.280661 2.967400
H 6.101375 7.016743 3.546682
H 5.632442 6.331982 2.281169
O 3.026855 3.246844 6.277060
H 3.627810 3.936794 6.557544
H 2.326978 3.258789 6.929653
O 3.235915 6.137248 3.054627
H 4.090990 6.391166 2.707896
H 2.605935 6.540137 2.457421
O 6.288145 3.227176 3.077949
H 5.583384 2.622774 3.310022
H 6.664474 3.490171 3.917627
O 3.056155 3.247349 2.982969
H 2.955802 2.611344 2.274960
H 3.731543 2.872443 3.547899
O -0.126031 2.987662 3.157308
H -0.502492 3.835312 2.921477
H 0.068619 3.063422 4.091236
O -0.005428 2.956796 6.302412
H 0.170450 3.258481 5.411401
H -0.107403 2.008933 6.218708
O 0.093948 6.101390 3.117538
H 0.087923 5.665059 2.265818
H -0.035936 5.394743 3.749700
O 0.021569 6.139466 6.320970
H -0.584214 6.644150 6.863344
H -0.479441 5.930826 5.532739
O 3.202847 -0.074067 2.987253
H 3.296302 -1.024863 3.042959
H 2.296868 0.093233 3.246215
O 2.968522 -0.102918 6.141426
H 3.170448 -0.758343 6.808878
H 2.192195 0.346855 6.474398
O 3.118166 3.035799 0.132257
H 3.166837 3.873886 -0.327189
H 2.229860 3.008375 0.487234
O 3.115188 2.958736 9.344843
H 3.765745 2.266771 9.462353
H 3.469349 3.705123 9.827880
O 3.182622 6.080102 0.065675
H 2.317853 6.131952 -0.340940
H 3.660448 6.828571 -0.291151
O 3.190121 6.254673 9.410669
H 3.759557 6.132485 8.651286
H 2.588528 6.951572 9.149390
O 3.110618 9.354314 3.001073
H 2.225038 9.210096 2.668210
H 3.114522 8.934949 3.861286
O 2.980376 9.284426 6.056610
H 3.819247 8.862587 6.241530
H 2.757487 8.996778 5.171495
O 6.255717 -0.146445 3.030599
H 5.328323 0.080114 3.097392
H 6.454875 -0.068357 2.097815
O 6.196172 0.030583 6.203923
H 5.693178 -0.163288 5.413190
H 5.604155 -0.186643 6.923768
O 6.106901 3.027877 0.141096
H 7.018665 3.292804 0.021307
H 5.749746 2.990395 -0.745969
O 6.197639 3.044929 9.353528
H 5.568234 2.721896 8.709053
H 6.946383 2.454221 9.274184
O 6.162184 6.130134 -0.057673
H 6.976494 6.430420 -0.460881
H 6.333573 6.165089 0.883206
O 6.181154 6.082133 9.351782
H 6.060526 6.894616 8.860694
H 5.365344 5.599382 9.220426
O 6.189152 9.328076 2.996950
H 5.608321 9.703430 2.335441
H 5.817060 8.465807 3.181039
O 6.118301 9.198151 6.322181
H 5.500146 9.212641 7.052608
H 5.874858 8.422271 5.817608
O 9.285835 3.249339 2.968780
H 9.553077 2.403982 3.329059
H 9.311824 3.847123 3.715658
O 9.361233 3.225152 6.066322
H 9.981197 3.500297 6.741444
H 9.843102 2.582506 5.546075
O 9.333857 6.091195 3.005773
H 9.840265 6.860985 3.264277
H 9.804389 5.353560 3.393513
O 9.225312 6.301293 6.206169
H 8.960296 6.065497 5.317341
H 10.145627 6.550416 6.123667
O 0.106195 -0.090717 6.204639
H -0.732328 0.062893 5.769746
H 0.757139 0.000664 5.509103
O 0.003462 6.298193 0.148474
H 0.887864 6.034798 0.402057
H -0.394715 5.499397 -0.196821
O -0.116390 6.290955 9.278343
H -1.043532 6.428801 9.471359
H 0.238882 7.172589 9.167204
O 0.016061 9.418495 6.240945
H 0.394323 10.290924 6.133083
H -0.448706 9.460463 7.076457
O 6.227333 -0.108826 0.065102
H 5.564716 -0.783819 -0.080403
H 6.827097 -0.495349 0.702857
O 6.242909 -0.080476 9.302566
H 6.879556 0.595411 9.070817
H 5.499806 0.080994 8.721554
O 6.190270 9.330268 -0.031876
H 6.874277 9.992813 0.063085
H 5.856588 9.201431 0.855765
O 6.315152 9.166537 9.231250
H 6.124700 9.765811 9.952670
H 5.458839 8.965896 8.853997
O 9.269243 -0.106941 6.298278
H 9.870935 0.621239 6.451806
H 8.676716 0.211290 5.617478
O 9.334564 6.185583 -0.055698
H 9.128164 6.955434 -0.585394
H 9.205836 5.445364 -0.648449
O 9.435092 6.257868 9.185997
H 8.750647 6.524647 8.572635
H 10.252902 6.404865 8.711204
O 9.355691 9.319720 6.149974
H 10.056023 9.587595 6.744640
H 9.258662 10.056350 5.546808
O 0.027239 0.002563 3.006373
H -0.586958 0.646886 2.655007
H 0.728069 -0.039890 2.356078
O 0.147453 3.183918 0.026005
H 0.086050 2.232713 0.111368
H 0.668169 3.459072 0.780323
O -0.019560 3.217069 9.365558
H -0.508608 2.490638 8.979580
H 0.011363 3.878858 8.674958
O 0.068124 9.207567 2.953405
H -0.433093 9.353178 2.151265
H -0.467169 9.597108 3.644468
O 3.074290 0.119054 -0.025146
H 2.991496 0.209839 0.923933
H 2.300001 0.558368 -0.376328
O 3.226747 -0.044881 9.448177
H 3.000204 0.867022 9.629726
H 3.209443 -0.110597 8.493593
