900
water cluster, 300 molecules, seed 20260826
O 9.337651 9.196205 9.211601
H 8.958153 9.302351 10.083704
H 10.270452 9.054560 9.371812
O 9.412254 9.214040 12.277783
H 8.900627 9.978252 12.013081
H 10.069924 9.562623 12.879289
O 9.186049 12.511206 9.345863
H 8.883321 11.632538 9.574221
H 8.398246 12.966567 9.049447
O 12.497500 9.380661 9.167400
H 12.301375 10.116743 9.746682
H 11.832442 9.431982 8.481169
O 6.126855 9.446844 9.377060
H 6.727810 10.136794 9.657544
H 5.426978 9.458789 10.029653
O 9.435915 6.137248 9.254627
H 10.290990 6.391166 8.907896
H 8.805935 6.540137 8.657421
O 9.388145 9.427176 6.177949
H 8.683384 8.822774 6.410022
H 9.764474 9.690171 7.017627
O 9.256155 12.547349 12.282969
H 9.155802 11.911344 11.574960
H 9.931543 12.172443 12.847899
O 12.273969 9.187662 12.457308
H 11.897508 10.035312 12.221477
H 12.468619 9.263422 13.391236
O 12.394572 12.256796 9.402412
H 12.570450 12.558481 8.511401
H 12.292597 11.308933 9.318708
O 6.293948 9.201390 12.417538
H 6.287923 8.765059 11.565818
H 6.164064 8.494743 13.049700
O 6.221569 12.339466 9.420970
H 5.615786 12.844150 9.963344
H 5.720559 12.130826 8.632739
O 9.402847 6.125933 12.287253
H 9.496302 5.175137 12.342959
H 8.496868 6.293233 12.546215
O 9.168522 12.297082 6.141426
H 9.370448 11.641657 6.808878
H 8.392195 12.746855 6.474398
O 12.418166 6.135799 9.432257
H 12.466837 6.973886 8.972811
H 11.529860 6.108375 9.787234
O 12.415188 9.158736 6.244843
H 13.065745 8.466771 6.362353
H 12.769349 9.905123 6.727880
O 6.282622 6.080102 9.365675
H 5.417853 6.131952 8.959060
H 6.760448 6.828571 9.008849
O 6.290121 9.354673 6.310669
H 6.859557 9.232485 5.551286
H 5.688528 10.051572 6.049390
O 9.310618 6.254314 6.101073
H 8.425038 6.110096 5.768210
H 9.314522 5.834949 6.961286
O 12.280376 12.384426 12.256610
H 13.119247 11.962587 12.441530
H 12.057487 12.096778 11.371495
O 6.255717 12.253555 12.330599
H 5.328323 12.480114 12.397392
H 6.454875 12.331643 11.397815
O 12.396172 6.230583 12.403923
H 11.893178 6.036712 11.613190
H 11.804155 6.013357 13.123768
O 12.306901 12.327877 6.341096
H 13.218665 12.592804 6.221307
H 11.949746 12.290395 5.454031
O 6.197639 6.144929 12.453528
H 5.568234 5.821896 11.809053
H 6.946383 5.554221 12.374184
O 6.162184 12.330134 6.142327
H 6.976494 12.630420 5.739119
H 6.333573 12.365089 7.083206
O 12.381154 6.082133 6.251782
H 12.260526 6.894616 5.760694
H 11.565344 5.599382 6.120426
O 6.189152 6.228076 6.096950
H 5.608321 6.603430 5.435441
H 5.817060 5.365807 6.281039
O 9.218301 9.198151 15.622181
H 8.600146 9.212641 16.352608
H 8.974858 8.422271 15.117608
O 9.285835 15.649339 9.168780
H 9.553077 14.803982 9.529059
H 9.311824 16.247123 9.915658
O 15.561233 9.425152 9.166322
H 16.181197 9.700297 9.841444
H 16.043102 8.782506 8.646075
O 3.133857 9.191195 9.205773
H 3.640265 9.960985 9.464277
H 3.604389 8.453560 9.593513
O 9.225312 3.201293 9.306169
H 8.960296 2.965497 8.417341
H 10.145627 3.450416 9.223667
O 9.406195 9.209283 3.104639
H 8.567672 9.362893 2.669746
H 10.057139 9.300664 2.409103
O 9.303462 12.498193 15.648474
H 10.187864 12.234798 15.902057
H 8.905285 11.699397 15.303179
O 9.183610 15.590955 12.378343
H 8.256468 15.728801 12.571359
H 9.538882 16.472589 12.267204
O 12.416061 9.418495 15.540945
H 12.794323 10.290924 15.433083
H 11.951294 9.460463 16.376457
O 12.427333 15.391174 9.365102
H 11.764716 14.716181 9.219597
H 13.027097 15.004651 10.002857
O 15.542909 9.219524 12.402566
H 16.179556 9.895411 12.170817
H 14.799806 9.380994 11.821554
O 15.490270 12.430268 9.268124
H 16.174277 13.092813 9.363085
H 15.156588 12.301431 10.155765
O 6.315152 9.166537 15.431250
H 6.124700 9.765811 16.152670
H 5.458839 8.965896 15.053997
O 6.169243 15.393059 9.398278
H 6.770935 16.121239 9.551806
H 5.576716 15.711290 8.717478
O 9.334564 6.185583 15.444302
H 9.128164 6.955434 14.914606
H 9.205836 5.445364 14.851551
O 9.435092 15.557868 6.085997
H 8.750647 15.824647 5.472635
H 10.252902 15.704865 5.611204
O 15.555691 6.219720 9.249974
H 16.256023 6.487595 9.844640
H 15.458662 6.956350 8.646808
O 15.527239 9.302563 6.106373
H 14.913042 9.946886 5.755007
H 16.228069 9.260110 5.456078
O 3.247453 6.283918 9.326005
H 3.186050 5.332713 9.411368
H 3.768169 6.559072 10.080323
O 3.080440 9.417069 6.265558
H 2.591392 8.690638 5.879580
H 3.111363 10.078858 5.574958
O 3.168124 9.207567 12.253405
H 2.666907 9.353178 11.451265
H 2.632831 9.597108 12.944468
O 3.074290 12.519054 9.274854
H 2.991496 12.609839 10.223933
H 2.300001 12.958368 8.923672
O 6.326747 3.055119 9.448177
H 6.100204 3.967022 9.629726
H 6.309443 2.989403 8.493593
O 6.130165 9.348446 3.197042
H 6.579951 9.894391 3.841624
H 6.613216 8.522333 3.203918
O 9.256341 3.073456 6.152631
H 8.832329 2.395497 6.678401
H 10.185342 2.999367 6.370156
O 9.276295 3.091238 12.512007
H 9.666065 2.286512 12.170914
H 9.455545 3.064713 13.451696
O 9.205843 6.177525 2.987294
H 8.965178 5.457746 2.404329
H 9.614351 6.824794 2.412827
O 9.229620 12.334107 3.097040
H 9.931777 12.890906 2.761184
H 8.519266 12.941736 3.302061
O 12.315408 2.983893 9.352706
H 13.253401 2.906071 9.525805
H 12.168199 2.438284 8.580379
O 12.302287 9.231748 2.962851
H 11.906911 8.671079 3.630067
H 12.320787 8.689527 2.174497
O 12.369352 12.427229 15.488583
H 13.275292 12.557041 15.208815
H 12.439876 12.103634 16.386448
O 12.296477 15.583665 12.484537
H 12.531504 14.685243 12.253345
H 13.058430 15.916259 12.958517
O 15.588851 12.353531 12.300626
H 16.299055 12.735039 11.784960
H 15.131316 13.107203 12.672765
O 6.275485 12.281348 15.448125
H 6.877273 12.329181 14.705553
H 6.068586 13.194075 15.648051
O 6.217082 15.441173 12.360584
H 7.108735 15.607857 12.055591
H 6.329022 14.915506 13.152412
O 12.497902 6.275198 15.527560
H 13.038792 5.600755 15.117179
H 12.842992 7.099840 15.185908
O 12.397115 15.572855 6.341989
H 13.196898 15.675369 5.826540
H 11.746656 16.104203 5.883273
O 15.364620 6.326464 12.411964
H 15.428347 6.864766 11.623282
H 15.431360 5.426382 12.093771
O 15.592777 12.299127 6.202698
H 15.375385 11.727644 6.938902
H 16.504371 12.548189 6.353738
O 6.284536 6.193901 15.450372
H 6.213331 6.472496 16.363150
H 6.251565 5.238220 15.488268
O 6.292429 15.555399 6.218294
H 5.818126 14.795370 5.881778
H 5.630847 16.061215 6.689791
O 15.571935 6.109545 6.072292
H 15.053876 5.511504 5.533951
H 16.098812 6.602497 5.443604
O 3.089258 6.171558 12.280529
H 2.310583 6.623497 12.604974
H 3.067390 6.306472 11.333338
O 3.200632 12.461927 6.267297
H 2.386830 12.727890 5.839700
H 3.808558 12.300349 5.546070
O 3.057903 12.393682 12.534037
H 3.382012 11.515540 12.733206
H 2.131652 12.266600 12.329689
O 6.240636 3.194753 12.531019
H 6.133987 3.029961 13.467672
H 5.718601 2.513931 12.106979
O 6.177877 12.316195 3.164344
H 6.402177 13.241250 3.263397
H 5.309775 12.321924 2.761584
O 12.512137 2.975691 6.195747
H 13.207611 3.622630 6.312517
H 12.072818 3.239405 5.387476
O 12.526159 3.029739 12.521188
H 12.781381 3.946952 12.618304
H 12.154146 2.976435 11.641067
O 12.514931 6.053261 3.003457
H 13.443701 6.084214 2.774817
H 12.264045 6.970457 3.111420
O 12.362684 12.348485 3.168636
H 12.377568 12.389616 2.212636
H 11.491628 12.013502 3.380526
O 2.966936 6.142261 6.239379
H 3.871963 6.255945 5.949810
H 2.574525 5.570115 5.580203
O 6.309543 3.192643 6.245300
H 6.074749 2.747361 7.059207
H 6.524085 4.085725 6.514048
O 6.207941 6.291420 3.247076
H 6.121697 7.242326 3.182358
H 6.777711 6.052213 2.516329
O 9.362153 15.391638 15.376926
H 9.979697 15.103386 14.705063
H 9.690695 15.002503 16.187163
O 15.384458 9.178444 15.565344
H 15.381623 8.638442 16.355432
H 16.015867 8.752256 14.986089
O 15.359912 15.524395 9.213775
H 14.485008 15.759068 9.522515
H 15.678372 16.312644 8.774347
O 2.994950 9.448409 15.562751
H 3.464731 10.225054 15.866028
H 2.642926 9.699473 14.708997
O 2.970910 15.490940 9.277144
H 3.418700 15.129673 10.041879
H 2.469352 14.756394 8.923970
O 9.360591 2.965782 15.558039
H 9.875449 3.376908 16.252118
H 9.968891 2.359856 15.135340
O 9.234477 15.479984 3.208896
H 8.407482 15.939053 3.063351
H 9.442569 15.086717 2.361613
O 15.528488 3.212507 9.428841
H 16.101296 3.906774 9.754007
H 16.029288 2.797944 8.726569
O 15.616664 9.399237 2.973023
H 14.901917 9.643950 2.385571
H 15.420050 9.853758 3.791926
O 2.968932 3.007209 9.382004
H 3.638765 2.431244 9.750020
H 2.773162 3.626665 10.084711
O 3.045262 9.206333 3.092324
H 3.401920 9.696559 3.832812
H 2.203616 9.624321 2.911310
O 9.179201 3.217487 2.971892
H 8.741726 3.656976 2.242979
H 8.495277 2.682709 3.374521
O 6.323256 15.565296 15.428214
H 5.690342 16.077995 14.925811
H 6.141334 14.657205 15.187122
O 12.274584 15.373127 15.614835
H 12.267689 16.328404 15.557849
H 12.666940 15.186783 16.467584
O 15.645595 6.346472 15.427566
H 15.626524 7.264047 15.156382
H 16.560005 6.183754 15.658276
O 15.462770 12.488350 15.440314
H 14.707201 12.659060 16.002295
H 16.142561 12.180870 16.039638
O 15.466449 15.609398 6.089935
H 16.399931 15.759044 6.238481
H 15.051200 15.843663 6.919716
O 15.391088 15.443435 12.283413
H 15.000004 14.980869 13.024314
H 14.647473 15.835974 11.826468
O 2.970641 12.347496 15.376431
H 3.387144 13.123305 15.751259
H 3.199578 12.377720 14.447710
O 2.950122 15.598630 12.348487
H 3.032365 15.439177 13.288519
H 2.369447 16.356586 12.283920
O 12.470010 3.043457 15.412926
H 12.410770 2.088300 15.416616
H 12.140136 3.307310 16.271654
O 12.456378 15.512878 3.110829
H 13.014561 15.285016 3.854038
H 11.564509 15.379913 3.431356
O 15.616561 2.970751 12.282654
H 15.187552 3.807126 12.462312
H 15.649229 2.918478 11.327642
O 15.544857 12.458726 3.005631
H 15.645685 13.375948 3.259377
H 16.440496 12.127099 2.944782
O -0.055484 9.181303 9.446713
H 0.466300 9.930403 9.159592
H -0.659002 9.543989 10.094845
O 3.078296 6.199599 15.599067
H 3.410942 6.615324 14.803851
H 3.841471 5.765364 15.979662
O 3.200737 15.360886 6.286608
H 3.218967 15.762900 5.418334
H 3.979201 14.804724 6.309547
O 6.216251 3.150550 15.577491
H 6.471363 3.411767 14.692882
H 6.956587 3.408410 16.126362
O 6.263343 15.519407 3.145131
H 6.809129 15.281177 2.395989
H 5.421030 15.761315 2.760634
O 9.423748 0.053013 9.191269
H 10.318773 0.066098 9.529807
H 9.521604 0.193844 8.249760
O 9.158343 9.304991 0.003610
H 9.744720 10.048894 -0.132838
H 9.456796 8.646478 -0.623395
O 9.244439 9.261501 18.675354
H 8.999377 9.700414 17.861015
H 9.696499 8.466811 18.392583
O 9.259421 18.588309 9.388241
H 8.770205 18.323255 10.166870
H 8.589674 18.717948 8.717062
O 15.525768 3.124964 6.282224
H 15.565759 2.169191 6.254875
H 15.943075 3.358627 7.111142
O 15.400917 6.173685 3.142656
H 15.863170 6.764181 2.548108
H 14.484551 6.443181 3.083543
O 18.582315 9.394911 9.174858
H 18.223260 9.025950 8.368138
H 19.059445 10.174172 8.890344
O 3.226256 3.027682 6.345466
H 2.706386 2.770437 5.584276
H 2.705329 3.707275 6.772826
O 3.092014 3.122893 12.473539
H 2.521256 3.207547 13.237030
H 3.522202 3.974615 12.400351
O 3.233896 6.324595 3.091143
H 3.203049 7.165402 3.547149
H 3.034428 6.538713 2.179982
O 3.109404 12.258302 3.093562
H 2.152793 12.231858 3.086868
H 3.375272 11.354152 2.927201
O 6.165303 3.139559 2.951431
H 6.628421 2.421908 3.383111
H 5.499769 2.707691 2.416264
O 12.515010 3.093302 3.134161
H 11.743718 3.403581 3.608168
H 13.248311 3.552752 3.542848
O -0.069097 6.064925 9.225554
H -0.339459 5.817660 8.341465
H 0.873391 5.899800 9.242890
O 0.037052 9.193367 6.270786
H 0.115749 8.739278 5.432062
H 0.847791 8.983448 6.733913
O -0.146703 9.225097 12.431365
H -0.486135 10.081355 12.171639
H -0.437905 9.116402 13.336482
O 0.024488 12.466701 9.340242
H 0.619743 11.755355 9.575838
H 0.282516 13.192894 9.907617
O 6.185219 0.008314 9.312495
H 5.800960 0.882110 9.380871
H 6.221697 -0.308676 10.214734
O 6.317320 9.288374 -0.036890
H 6.234289 9.807573 -0.836507
H 5.510762 9.463663 0.447453
O 6.136289 9.438669 18.482119
H 5.942281 9.207370 19.390254
H 7.078976 9.603306 18.472934
O 6.058119 18.735342 9.165470
H 5.723911 17.905266 8.826164
H 5.452270 18.968031 9.868786
O 9.199623 0.060543 6.159568
H 9.558365 -0.753585 6.512199
H 8.433455 0.240439 6.704060
O 9.205045 0.013072 12.542756
H 8.716162 0.469105 11.858010
H 10.097664 -0.043888 12.202409
O 9.292421 6.253208 -0.113702
H 9.408558 6.900915 -0.808567
H 10.147556 6.203698 0.313078
O 9.375168 6.339425 18.596782
H 8.440473 6.334207 18.391432
H 9.419471 6.084987 19.518274
O 9.397750 12.415242 0.111144
H 9.727003 12.616705 -0.764558
H 9.430009 13.250425 0.577273
O 9.386339 12.474592 18.712768
H 8.963212 12.953192 19.425338
H 9.065478 11.577507 18.802961
O 9.173696 18.499226 6.211003
H 9.245504 17.551995 6.326963
H 9.910109 18.857734 6.705993
O 9.225177 18.501015 12.433429
H 8.925681 19.193065 13.022681
H 10.158591 18.410985 12.624432
O 12.392802 -0.044843 9.403751
H 12.136659 -0.753327 9.993912
H 11.966761 0.732778 9.763812
O 12.533099 9.421135 0.044352
H 12.910567 9.578680 -0.820833
H 13.090106 9.918392 0.642956
O 12.491549 9.180022 18.671538
H 11.627015 8.920223 18.989239
H 12.580583 10.094350 18.939730
O 12.255659 18.666429 9.356995
H 12.601185 18.607154 10.247471
H 12.501409 17.836432 8.948875
O 18.499625 6.261381 9.274072
H 18.845706 5.510567 9.756104
H 17.550814 6.198902 9.382250
O 18.632478 9.326814 6.138135
H 18.935299 9.894980 5.430084
H 17.820212 8.943881 5.807326
O 18.680196 9.391029 12.404858
H 18.049144 8.711635 12.168116
H 18.603326 9.468655 13.355602
O 18.720165 12.321172 9.266162
H 19.420717 12.445997 8.626244
H 18.044887 11.837472 8.790891
O -0.037039 6.273204 6.171046
H 0.509343 7.050565 6.285180
H -0.366800 6.081143 7.048668
O -0.129720 6.267470 12.505704
H -0.641259 5.594900 12.954955
H 0.686181 6.320093 13.003081
O 0.058070 12.384469 6.342066
H 0.049323 11.838126 7.127738
H -0.864873 12.485100 6.109902
O -0.119005 12.300134 12.353749
H -0.956779 12.754337 12.441404
H 0.538548 12.985536 12.470777
O 6.166255 0.010762 6.154168
H 6.082732 -0.740757 6.740763
H 5.298533 0.414372 6.156787
O 6.295057 0.049691 12.417936
H 7.082969 0.376700 11.984219
H 6.237999 0.558384 13.226530
O 6.335601 6.086048 -0.031067
H 6.310794 5.137137 0.090595
H 7.215513 6.262058 -0.363667
O 6.060973 6.135414 18.689107
H 5.914438 6.980226 18.264054
H 6.630628 6.336262 19.431402
O 6.235648 12.357280 0.020495
H 6.498966 12.253752 -0.893723
H 6.915901 12.910022 0.404657
O 6.241266 12.381688 18.749372
H 7.075489 12.805399 18.950343
H 6.420652 11.857387 17.969130
O 6.107229 18.476965 6.107818
H 5.931241 18.147390 6.988873
H 7.018440 18.237448 5.939965
O 6.297926 18.570037 12.461559
H 5.535899 18.007194 12.326017
H 6.150175 18.971313 13.317711
O 12.358368 -0.015456 6.079173
H 13.036673 0.233436 6.706711
H 11.535399 0.132017 6.544816
O 12.301454 0.017495 12.362530
H 13.148504 0.284492 12.006066
H 12.469646 -0.133391 13.292473
O 12.290747 6.117523 0.059696
H 11.858717 5.656681 -0.659208
H 12.377461 5.459017 0.748681
O 12.508333 6.290399 18.590959
H 13.256569 5.814922 18.230523
H 11.856264 5.612587 18.767667
O 12.263636 12.312724 0.001139
H 12.244928 11.600588 0.640172
H 11.436275 12.775143 0.133398
O 12.260168 12.304402 18.460421
H 13.185014 12.234730 18.696332
H 11.815697 12.493238 19.286639
O 12.453820 18.703116 6.330834
H 13.383569 18.616672 6.540458
H 12.044058 17.941296 6.740192
O 12.371569 18.545726 12.309093
H 12.663551 18.069223 11.532215
H 11.501704 18.192253 12.494137
O 18.458821 6.213604 6.291066
H 18.665625 6.937282 5.699991
H 19.053660 5.511689 6.027758
O 18.457646 6.214438 12.457249
H 18.431233 5.728905 13.281512
H 17.743302 6.847231 12.528905
O 18.625729 12.259657 6.235651
H 18.942243 12.803903 5.514912
H 19.417635 12.002819 6.707635
O 18.491930 12.342989 12.284707
H 17.845706 12.067558 11.634798
H 17.971518 12.705497 13.001372
O 15.378382 15.443271 15.557692
H 15.803227 16.049727 14.951419
H 16.068510 15.197129 16.173311
O 3.247601 15.367917 15.628941
H 3.615803 16.176365 15.273008
H 2.314303 15.553862 15.730068
O 15.465745 3.133837 15.539938
H 16.323896 2.775670 15.313790
H 14.919298 2.364438 15.698903
O 15.450641 15.594107 3.214204
H 15.298986 14.935128 3.891402
H 14.701978 16.186121 3.284015
O 3.046725 3.203822 15.617412
H 3.140577 3.770553 14.851999
H 3.938410 3.098967 15.948700
O 3.090957 15.432397 3.166861
H 2.700041 14.722927 2.657267
H 2.425293 16.119949 3.170260
O 15.435465 3.038606 3.188835
H 16.365260 3.004839 3.412868
H 14.998741 3.259817 4.011141
O 3.191114 3.076674 3.010841
H 3.210614 3.134650 2.055798
H 3.620781 2.244882 3.209225
O -0.015773 9.384482 15.423599
H -0.861570 9.266942 14.991556
H 0.589356 9.594514 14.712575
O -0.040404 15.646963 9.436575
H -0.502102 16.394203 9.816464
H -0.419205 14.884154 9.873016
O 9.323214 0.033864 15.542012
H 9.382916 0.969808 15.351506
H 8.809455 -0.325532 14.819008
O 9.190191 15.501839 0.000688
H 8.870239 15.393249 0.896059
H 10.141546 15.553361 0.090788
O 9.391903 15.466885 18.468128
H 9.231226 14.838800 19.172075
H 9.616904 14.926150 17.711274
O 9.438776 18.612741 15.492202
H 9.807105 19.002290 14.699463
H 8.673709 19.152162 15.691062
O 15.643160 0.145290 9.286182
H 15.464108 -0.775373 9.476361
H 14.853322 0.606228 9.568213
O 15.434456 9.300138 -0.126271
H 15.311674 8.530966 0.429740
H 15.592831 8.941818 -0.999410
O 15.602044 9.210604 18.454130
H 15.591416 9.534110 19.354730
H 16.016302 8.349960 18.513553
O 15.503730 18.515760 9.242468
H 14.727517 18.975431 8.923024
H 15.421569 17.631070 8.886910
O 18.525051 9.215536 15.469294
H 18.976383 8.814871 14.726585
H 19.165265 9.191237 16.180198
O 18.722071 15.510966 9.194232
H 18.625575 15.575143 10.144189
H 19.014628 16.381088 8.923776
O -0.003141 3.020364 9.426141
H 0.072588 2.076643 9.286481
H -0.856906 3.133067 9.843553
O 0.005047 9.415452 3.092134
H -0.239250 9.959784 3.840378
H 0.527118 9.993207 2.535816
O 3.072668 -0.121109 9.445775
H 2.921209 -0.157524 8.501538
H 2.213093 0.072970 9.819021
O 3.101790 9.401373 -0.134316
H 2.665341 8.584210 0.105695
H 2.536293 9.787693 -0.802762
O 3.190426 9.278395 18.665920
H 3.270459 9.813202 17.876348
H 3.660290 8.471221 18.457240
O 3.020933 18.720892 9.250356
H 3.528620 19.264086 9.852887
H 3.655749 18.098652 8.895849
O 9.226399 0.136191 3.148809
H 9.419735 -0.666130 2.664298
H 9.499809 -0.053919 4.046002
O 9.431391 3.203423 -0.014000
H 10.063502 3.500750 -0.668127
H 8.579548 3.316472 -0.435228
O 9.197030 3.108462 18.515010
H 9.273817 2.232681 18.136911
H 10.040685 3.260620 18.940386
O 9.214989 18.491291 3.155817
H 9.851833 17.786084 3.269657
H 8.364152 18.062917 3.247587
O 18.741194 3.062199 9.234467
H 18.009107 3.341584 8.685066
H 19.083265 3.873825 9.608766
O 18.708898 9.171219 2.972979
H 19.551869 9.116346 2.523269
H 18.146218 9.655497 2.369063
O 0.076170 6.070607 15.364663
H -0.834864 5.969602 15.089591
H 0.303174 5.227346 15.756106
O 0.012139 12.327979 15.633573
H -0.386350 13.197871 15.652093
H -0.714046 11.728108 15.802860
O 0.133607 15.537362 6.099555
H 0.580503 15.331207 6.920306
H -0.383229 14.755714 5.905246
O -0.121056 15.607726 12.270477
H -0.615393 16.412467 12.424981
H 0.098476 15.636383 11.339439
O 6.172584 -0.121525 15.563483
H 6.046196 -1.033456 15.824742
H 5.326231 0.144406 15.204573
O 6.262487 15.471226 0.026888
H 5.551414 16.074657 -0.187810
H 6.299588 15.475172 0.983161
O 6.198945 15.542822 18.490983
H 6.083799 14.592925 18.474042
H 5.541995 15.874770 17.879364
O 6.108019 18.474577 15.361990
H 7.041564 18.269546 15.410005
H 5.783579 18.323614 16.249570
O 12.512565 -0.062523 15.519724
H 11.567637 0.044011 15.411974
H 12.869234 0.815768 15.388416
O 12.483642 15.553530 0.053041
H 12.143238 15.933127 0.862905
H 11.980719 15.979207 -0.641017
O 12.424624 15.529556 18.599648
H 12.678866 14.858741 19.233065
H 13.237866 15.994266 18.403355
O 12.332109 18.496149 15.401745
H 11.415496 18.769156 15.435467
H 12.506939 18.135834 16.270915
O 15.649108 0.041879 6.300672
H 16.464325 0.528166 6.179035
H 14.980824 0.586823 5.885605
O 15.363898 -0.102024 12.265253
H 14.626233 0.093305 11.687718
H 16.042987 0.520186 12.005366
O 15.630980 6.102013 -0.057403
H 16.454558 6.182018 0.423395
H 15.663673 6.803889 -0.707134
O 15.435025 6.319996 18.651786
H 15.373265 7.259692 18.481475
H 15.247781 6.233026 19.586251
O 15.576093 12.541589 -0.061695
H 15.880003 11.636506 -0.127373
H 14.635383 12.491300 -0.230176
O 15.365387 12.445363 18.554092
H 15.902105 12.978996 19.139771
H 15.646145 11.546447 18.724310
O 15.437495 18.625331 6.168103
H 15.449193 18.320746 7.075264
H 15.649908 19.556705 6.225301
O 15.602700 18.711683 12.259648
H 15.980750 18.946230 11.412350
H 14.692419 18.491211 12.063102
O 18.516825 6.299211 15.540975
H 19.317328 6.796637 15.707145
H 18.448953 6.266140 14.586958
O 18.642320 12.516960 15.597452
H 19.328837 11.955327 15.956773
H 17.880032 12.347374 16.150631
O 18.735833 15.644697 6.152342
H 18.741824 16.601675 6.154752
H 18.210126 15.410294 5.387792
O 18.648644 15.543352 12.534334
H 18.980616 15.632330 13.427489
H 17.816066 16.015190 12.540043
O -0.099072 3.149149 6.157707
H -0.245057 3.096690 5.213364
H -0.308352 4.055517 6.382535
O 0.086299 2.962736 12.455163
H -0.094989 3.270424 13.343032
H -0.203016 2.050516 12.453946
O 0.127803 6.120210 3.006514
H 0.201453 6.522308 2.141216
H 0.757292 5.399566 2.990223
O 0.005935 12.424192 3.177029
H 0.522289 12.852607 2.494615
H 0.651721 11.964031 3.712809
O 3.094055 0.018617 6.127533
H 2.178306 0.229215 6.308920
H 3.411652 -0.384807 6.935141
O 3.007969 -0.080195 12.417404
H 2.657277 0.296128 13.224402
H 3.571013 -0.795899 12.711681
O 3.164846 6.144852 -0.039874
H 3.631416 5.337322 0.174735
H 2.627100 5.916668 -0.797904
O 3.229072 6.190729 18.496383
H 2.712755 6.500778 19.240114
H 3.931194 6.834840 18.406971
O 3.133780 12.491120 0.083437
H 4.028365 12.180711 0.222044
H 3.228371 13.239480 -0.505511
O 3.038671 12.444760 18.747966
H 2.400688 12.207377 19.420629
H 3.485041 11.623984 18.540772
O 3.048803 18.587387 6.296730
H 2.447767 19.330415 6.246583
H 3.834880 18.942599 6.711164
O 3.185242 18.587610 12.286852
H 2.396670 18.089934 12.071627
H 2.896074 19.499740 12.302625
O 6.268553 0.100376 3.209615
H 5.737830 0.886517 3.336752
H 6.652503 0.208572 2.339715
O 6.111241 3.187380 -0.000769
H 6.169404 2.454540 -0.613477
H 5.189963 3.211542 0.257134
O 6.081736 3.093609 18.584735
H 5.923133 2.719816 19.451322
H 6.734472 2.515542 18.190243
O 6.142646 18.591515 3.089835
H 6.340435 17.834367 2.538967
H 5.928801 18.216961 3.944135
O 12.292408 -0.003467 3.106880
H 13.036115 0.276690 2.573719
H 11.893622 0.812221 3.409324
O 12.406353 3.182649 0.083985
H 13.126853 2.559808 -0.009808
H 11.744577 2.878785 -0.536956
O 12.370640 2.976308 18.591482
H 11.655902 3.220229 19.179276
H 13.153662 3.006784 19.140844
O 12.503675 18.517169 3.077144
H 13.317693 18.600672 2.580907
H 12.083485 19.372956 2.993974
O 18.563808 2.986870 6.327181
H 18.092767 2.853283 5.504914
H 19.467199 3.156734 6.060947
O 18.469622 3.197189 12.269659
H 18.591662 2.263882 12.442557
H 19.000269 3.368176 11.491825
O 18.495925 6.085202 3.151822
H 18.314289 6.739444 3.826228
H 19.078379 5.456879 3.578212
O 18.738457 12.480425 3.127906
H 18.348015 12.366735 2.261604
H 19.242277 11.679404 3.270658
O -0.139862 3.125010 15.609462
H 0.595011 3.460982 16.122233
H -0.882031 3.144179 16.213338
O -0.148688 15.404493 3.236419
H -0.070918 16.094172 2.577523
H 0.409372 15.697175 3.956666
O 0.072165 15.400730 15.642517
H 0.201216 16.332181 15.820265
H -0.639956 15.375111 15.003709
O 3.247538 -0.063966 15.450189
H 3.764243 -0.817686 15.734392
H 3.436419 0.017334 14.515543
O 3.100426 15.554355 0.149226
H 3.411114 15.515588 -0.755108
H 2.798514 16.455649 0.260434
O 3.045739 15.542219 18.525381
H 3.185124 16.478058 18.668998
H 2.234770 15.346043 18.994095
O 2.976527 18.654415 15.411002
H 3.923557 18.537705 15.484233
H 2.871842 19.513675 15.002881
O 15.384882 -0.023655 2.954631
H 14.859497 0.482548 3.573967
H 15.225297 -0.936171 3.194832
O 15.562978 -0.059630 15.550721
H 15.212082 -0.638085 14.873882
H 15.708848 -0.632388 16.303396
O 15.501801 2.989207 -0.042624
H 15.826657 2.118585 -0.271395
H 15.367453 2.953661 0.904232
O 15.617937 3.151983 18.697337
H 16.572375 3.175855 18.631556
H 15.406040 2.221665 18.771209
O 15.434071 15.504953 -0.042809
H 14.994402 16.293771 0.273903
H 14.803272 14.801549 0.109393
O 15.446168 15.359227 18.527027
H 16.373518 15.127656 18.479639
H 15.057960 14.681642 19.080220
O 15.356667 18.557137 3.086494
H 15.327684 19.486049 3.314817
H 16.187716 18.449831 2.624225
O 15.477930 18.581317 15.400275
H 15.821778 18.285424 14.557621
H 14.528563 18.496041 15.314955
O 18.666622 2.954919 15.583443
H 17.763940 2.932662 15.266395
H 19.133741 3.486780 14.939415
O 18.658786 15.627182 3.211258
H 18.288058 16.324480 3.751801
H 19.336557 16.060509 2.692891
O 18.748719 15.404119 15.629710
H 18.645596 16.238872 16.086221
H 19.689937 15.331650 15.472528
O -0.001311 2.971942 3.095800
H -0.094901 3.813609 3.541542
H 0.943968 2.831579 3.044868
O 3.082436 0.126329 3.214597
H 2.587593 0.469989 3.958155
H 2.414199 -0.200684 2.612624
O 3.121764 3.203701 -0.062544
H 3.288029 2.340439 0.315587
H 3.183517 3.067205 -1.007745
O 3.126270 3.158802 18.470021
H 3.877455 2.797776 17.999669
H 3.462564 3.354628 19.344325
O 3.091557 18.600673 3.066544
H 2.885568 18.988907 3.916657
H 3.167575 17.663223 3.243343
O 18.464553 2.997804 3.246551
H 18.588018 2.293095 3.882154
H 17.863202 2.632686 2.597771
O -0.062227 0.104178 9.350851
H -0.005358 -0.732178 9.812503
H 0.049047 0.763724 10.035297
O -0.000774 9.160855 0.090549
H -0.229113 10.065577 0.303127
H -0.818865 8.774098 -0.220890
O -0.037695 9.265298 18.666522
H -0.787704 8.971152 18.149981
H 0.631321 8.596945 18.519653
O 0.013869 18.498370 9.425064
H 0.904536 18.388186 9.092768
H -0.545187 18.142368 8.734725
O 9.394308 0.013165 -0.048557
H 10.134746 0.173353 -0.633314
H 8.817405 -0.566411 -0.545672
O 9.307548 -0.138748 18.535911
H 10.019656 0.466972 18.331331
H 9.186080 -0.645601 17.733294
O 9.378639 18.626884 -0.003444
H 10.133125 19.040087 0.415916
H 8.713245 18.589841 0.683381
O 9.193610 18.587771 18.556803
H 10.135141 18.545577 18.722899
H 8.953456 19.490043 18.766757
O 18.514728 -0.062501 9.253746
H 18.086764 0.773975 9.072077
H 19.015535 -0.252645 8.460722
O 18.616720 9.426715 -0.091626
H 18.382110 10.248929 0.338224
H 19.382883 9.114852 0.389607
O 18.548354 9.367756 18.483599
H 18.315204 8.672573 19.098587
H 17.728676 9.576488 18.035929
O 18.665717 18.573447 9.193935
H 19.290565 17.864094 9.343043
H 18.339969 18.793197 10.066545
O -0.055507 -0.051948 12.528555
H -1.010084 -0.070457 12.463065
H 0.165681 0.879030 12.542858
O 0.005458 12.432075 0.046148
H 0.817392 12.938621 0.041297
H 0.289856 11.524546 0.152722
O 0.134226 12.439728 18.727385
H 0.477071 13.211391 19.177765
H -0.811822 12.482389 18.865307
O -0.079947 18.524840 12.484482
H -0.939249 18.730692 12.852007
H 0.524017 18.616919 13.221094
O 12.357191 -0.080199 -0.149779
H 12.028206 -0.955164 0.055293
H 12.849510 0.179247 0.628783
O 12.484263 0.106517 18.469811
H 11.801688 0.774932 18.413596
H 12.076340 -0.612574 18.951843
O 12.482523 18.678157 -0.136914
H 12.564854 18.806282 0.807890
H 12.609720 19.550628 -0.509022
O 12.268811 18.553791 18.620729
H 12.037650 19.472566 18.755887
H 13.054721 18.582164 18.075395
O 18.701118 -0.111342 12.313539
H 19.549496 -0.518310 12.488124
H 18.763036 0.754259 12.716962
O 18.554898 12.530650 -0.083344
H 17.789372 12.671481 -0.640108
H 18.411919 13.103308 0.669961
O 18.523783 12.268964 18.675537
H 19.412133 11.962251 18.494954
H 18.026591 11.471109 18.854638
O 18.570229 18.581119 12.272736
H 18.775616 19.459572 11.953383
H 17.782884 18.697364 12.804171
O -0.019144 -0.072578 6.141220
H 0.641253 -0.276799 6.803051
H 0.402287 -0.284995 5.308679
