450
water cluster, 150 molecules, seed 20260826
O 6.237651 6.096205 6.111601
H 5.858153 6.202351 6.983704
H 7.170452 5.954560 6.271812
O 6.312254 6.114040 9.177783
H 5.800627 6.878252 8.913081
H 6.969924 6.462623 9.779289
O 6.086049 9.411206 6.245863
H 5.783321 8.532538 6.474221
H 5.298246 9.866567 5.949447
O 9.397500 6.280661 6.067400
H 9.201375 7.016743 6.646682
H 8.732442 6.331982 5.381169
O 6.126855 9.446844 9.377060
H 6.727810 10.136794 9.657544
H 5.426978 9.458789 10.029653
O 9.435915 6.137248 9.254627
H 10.290990 6.391166 8.907896
H 8.805935 6.540137 8.657421
O 9.388145 9.427176 6.177949
H 8.683384 8.822774 6.410022
H 9.764474 9.690171 7.017627
O 9.256155 9.447349 9.182969
H 9.155802 8.811344 8.474960
H 9.931543 9.072443 9.747899
O 2.973969 6.087662 6.257308
H 2.597508 6.935312 6.021477
H 3.168619 6.163422 7.191236
O 3.094572 6.056796 9.402412
H 3.270450 6.358481 8.511401
H 2.992597 5.108933 9.318708
O 3.193948 9.201390 6.217538
H 3.187923 8.765059 5.365818
H 3.064064 8.494743 6.849700
O 6.221569 3.039466 6.320970
H 5.615786 3.544150 6.863344
H 5.720559 2.830826 5.532739
O 6.302847 3.025933 9.187253
H 6.396302 2.075137 9.242959
H 5.396868 3.193233 9.446215
O 6.068522 6.097082 3.041426
H 6.270448 5.441657 3.708878
H 5.292195 6.546855 3.374398
O 6.218166 6.135799 12.532257
H 6.266837 6.973886 12.072811
H 5.329860 6.108375 12.887234
O 6.215188 9.158736 3.144843
H 6.865745 8.466771 3.262353
H 6.569349 9.905123 3.627880
O 6.282622 9.180102 12.465675
H 5.417853 9.231952 12.059060
H 6.760448 9.928571 12.108849
O 6.290121 12.454673 6.310669
H 6.859557 12.332485 5.551286
H 5.688528 13.151572 6.049390
O 6.210618 12.454314 9.201073
H 5.325038 12.310096 8.868210
H 6.214522 12.034949 10.061286
O 9.180376 3.084426 6.056610
H 10.019247 2.662587 6.241530
H 8.957487 2.796778 5.171495
O 9.355717 6.053555 3.030599
H 8.428323 6.280114 3.097392
H 9.554875 6.131643 2.097815
O 9.296172 6.230583 12.403923
H 8.793178 6.036712 11.613190
H 8.704155 6.013357 13.123768
O 9.206901 12.327877 6.341096
H 10.118665 12.592804 6.221307
H 8.849746 12.290395 5.454031
O 12.397639 6.144929 6.253528
H 11.768234 5.821896 5.609053
H 13.146383 5.554221 6.174184
O 12.362184 6.130134 9.242327
H 13.176494 6.430420 8.839119
H 12.533573 6.165089 10.183206
O 12.381154 9.182133 6.251782
H 12.260526 9.994616 5.760694
H 11.565344 8.699382 6.120426
O 3.089152 9.328076 9.196950
H 2.508321 9.703430 8.535441
H 2.717060 8.465807 9.381039
O 9.218301 2.998151 9.422181
H 8.600146 3.012641 10.152608
H 8.974858 2.222271 8.917608
O 9.285835 9.449339 2.968780
H 9.553077 8.603982 3.329059
H 9.311824 10.047123 3.715658
O 9.361233 9.425152 12.266322
H 9.981197 9.700297 12.941444
H 9.843102 8.782506 11.746075
O 9.333857 12.291195 9.205773
H 9.840265 13.060985 9.464277
H 9.804389 11.553560 9.593513
O 12.325312 9.401293 9.306169
H 12.060296 9.165497 8.417341
H 13.245627 9.650416 9.223667
O 3.206195 3.009283 6.204639
H 2.367672 3.162893 5.769746
H 3.857139 3.100664 5.509103
O 3.103462 6.298193 3.248474
H 3.987864 6.034798 3.502057
H 2.705285 5.499397 2.903179
O 2.983610 6.290955 12.378343
H 2.056468 6.428801 12.571359
H 3.338882 7.172589 12.267204
O 3.116061 12.518495 6.240945
H 3.494323 13.390924 6.133083
H 2.651294 12.560463 7.076457
O 6.227333 2.991174 3.165102
H 5.564716 2.316181 3.019597
H 6.827097 2.604651 3.802857
O 6.242909 3.019524 12.402566
H 6.879556 3.695411 12.170817
H 5.499806 3.180994 11.821554
O 6.190270 12.430268 3.068124
H 6.874277 13.092813 3.163085
H 5.856588 12.301431 3.955765
O 6.315152 12.266537 12.331250
H 6.124700 12.865811 13.052670
H 5.458839 12.065896 11.953997
O 12.369243 2.993059 6.298278
H 12.970935 3.721239 6.451806
H 11.776716 3.311290 5.617478
O 12.434564 6.185583 3.044302
H 12.228164 6.955434 2.514606
H 12.305836 5.445364 2.451551
O 12.535092 6.257868 12.285997
H 11.850647 6.524647 11.672635
H 13.352902 6.404865 11.811204
O 12.455691 12.419720 6.149974
H 13.156023 12.687595 6.744640
H 12.358662 13.156350 5.546808
O 3.127239 3.102563 9.206373
H 2.513042 3.746886 8.855007
H 3.828069 3.060110 8.556078
O 3.247453 9.383918 3.126005
H 3.186050 8.432713 3.211368
H 3.768169 9.659072 3.880323
O 3.080440 9.417069 12.465558
H 2.591392 8.690638 12.079580
H 3.111363 10.078858 11.774958
O 3.168124 12.307567 9.153405
H 2.666907 12.453178 8.351265
H 2.632831 12.697108 9.844468
O 9.274290 3.219054 3.074854
H 9.191496 3.309839 4.023933
H 8.500001 3.658368 2.723672
O 9.426747 3.055119 12.548177
H 9.200204 3.967022 12.729726
H 9.409443 2.989403 11.593593
O 9.230165 12.448446 3.197042
H 9.679951 12.994391 3.841624
H 9.713216 11.622333 3.203918
O 9.256341 12.373456 12.352631
H 8.832329 11.695497 12.878401
H 10.185342 12.299367 12.570156
O 12.376295 3.091238 9.412007
H 12.766065 2.286512 9.070914
H 12.555545 3.064713 10.351696
O 12.305843 9.277525 2.987294
H 12.065178 8.557746 2.404329
H 12.714351 9.924794 2.412827
O 12.329620 9.234107 12.397040
H 13.031777 9.790906 12.061184
H 11.619266 9.841736 12.602061
O 12.315408 12.283893 9.352706
H 13.253401 12.206071 9.525805
H 12.168199 11.738284 8.580379
O -0.097713 6.131748 6.062851
H -0.493089 5.571079 6.730067
H -0.079213 5.589527 5.274497
O 6.169352 0.027229 6.188583
H 7.075292 0.157041 5.908815
H 6.239876 -0.296366 7.086448
O 6.096477 6.283665 0.084537
H 6.331504 5.385243 -0.146655
H 6.858430 6.616259 0.558517
O 6.288851 6.153531 15.400626
H 6.999055 6.535039 14.884960
H 5.831316 6.907203 15.772765
O 6.275485 15.381348 6.148125
H 6.877273 15.429181 5.405553
H 6.068586 16.294075 6.348051
O 15.517082 6.141173 6.160584
H 16.408735 6.307857 5.855591
H 15.629022 5.615506 6.952412
O 0.097902 6.275198 9.327560
H 0.638792 5.600755 8.917179
H 0.442992 7.099840 8.985908
O -0.002885 9.372855 6.341989
H 0.796898 9.475369 5.826540
H -0.653344 9.904203 5.883273
O -0.135380 9.426464 9.311964
H -0.071653 9.964766 8.523282
H -0.068640 8.526382 8.993771
O 3.192777 2.999127 3.102698
H 2.975385 2.427644 3.838902
H 4.104371 3.248189 3.253738
O 3.184536 3.093901 12.350372
H 3.113331 3.372496 13.263150
H 3.151565 2.138220 12.388268
O 3.192429 12.455399 3.118294
H 2.718126 11.695370 2.781778
H 2.530847 12.961215 3.589791
O 3.171935 12.309545 12.272292
H 2.653876 11.711504 11.733951
H 3.698812 12.802497 11.643604
O 6.189258 -0.028442 9.180529
H 5.410583 0.423497 9.504974
H 6.167390 0.106472 8.233338
O 6.300632 9.361927 0.067297
H 5.486830 9.627890 -0.360300
H 6.908558 9.200349 -0.653930
O 6.157903 9.293682 15.634037
H 6.482012 8.415540 15.833206
H 5.231652 9.166600 15.429689
O 6.240636 15.594753 9.431019
H 6.133987 15.429961 10.367672
H 5.718601 14.913931 9.006979
O 9.277877 -0.083805 6.264344
H 9.502177 0.841250 6.363397
H 8.409775 -0.078076 5.861584
O 9.412137 -0.124309 9.295747
H 10.107611 0.522630 9.412517
H 8.972818 0.139405 8.487476
O 9.426159 6.129739 0.121188
H 9.681381 7.046952 0.218304
H 9.054146 6.076435 -0.758933
O 9.414931 6.053261 15.403457
H 10.343701 6.084214 15.174817
H 9.164045 6.970457 15.511420
O 9.262684 9.248485 0.068636
H 9.277568 9.289616 -0.887364
H 8.391628 8.913502 0.280526
O 9.166936 9.242261 15.539379
H 10.071963 9.355945 15.249810
H 8.774525 8.670115 14.880203
O 9.409543 15.592643 6.245300
H 9.174749 15.147361 7.059207
H 9.624085 16.485725 6.514048
O 9.307941 15.591420 9.447076
H 9.221697 16.542326 9.382358
H 9.877711 15.352213 8.716329
O 12.462153 2.991638 2.976926
H 13.079697 2.703386 2.305063
H 12.790695 2.602503 3.787163
O 12.284458 2.978444 12.465344
H 12.281623 2.438442 13.255432
H 12.915867 2.552256 11.886089
O 12.259912 12.424395 3.013775
H 11.385008 12.659068 3.322515
H 12.578372 13.212644 2.574347
O 12.294950 12.548409 12.462751
H 12.764731 13.325054 12.766028
H 11.942926 12.799473 11.608997
O 15.370910 6.190940 9.277144
H 15.818700 5.829673 10.041879
H 14.869352 5.456394 8.923970
O 15.560591 9.165782 6.258039
H 16.075449 9.576908 6.952118
H 16.168891 8.559856 5.835340
O 15.434477 9.279984 9.408896
H 14.607482 9.739053 9.263351
H 15.642569 8.886717 8.561613
O 0.028488 3.212507 6.328841
H 0.601296 3.906774 6.654007
H 0.529288 2.797944 5.626569
O 0.116664 3.199237 9.173023
H -0.598083 3.443950 8.585571
H -0.079950 3.653758 9.991926
O -0.131068 6.107209 3.182004
H 0.538765 5.531244 3.550020
H -0.326838 6.726665 3.884711
O -0.054738 6.106333 12.392324
H 0.301920 6.596559 13.132812
H -0.896384 6.524321 12.211310
O -0.120799 9.417487 2.971892
H -0.558274 9.856976 2.242979
H -0.804723 8.882709 3.374521
O 0.123256 9.365296 12.328214
H -0.509658 9.877995 11.825811
H -0.058666 8.457205 12.087122
O -0.125416 12.273127 6.314835
H -0.132311 13.228404 6.257849
H 0.266940 12.086783 7.167584
O 0.145595 12.546472 9.227566
H 0.126524 13.464047 8.956382
H 1.060005 12.383754 9.458276
O 3.062770 0.088350 6.140314
H 2.307201 0.259060 6.702295
H 3.742561 -0.219130 6.739638
O 3.066449 0.109398 9.189935
H 3.999931 0.259044 9.338481
H 2.651200 0.343663 10.019716
O 2.991088 6.143435 -0.116587
H 2.600004 5.680869 0.624314
H 2.247473 6.535974 -0.573532
O 2.970641 6.147496 15.376431
H 3.387144 6.923305 15.751259
H 3.199578 6.177720 14.447710
O 2.950122 9.398630 -0.051513
H 3.032365 9.239177 0.888519
H 2.369447 10.156586 -0.116080
O 3.170010 9.243457 15.412926
H 3.110770 8.288300 15.416616
H 2.840136 9.507310 16.271654
O 3.156378 15.512878 6.210829
H 3.714561 15.285016 6.954038
H 2.264509 15.379913 6.531356
O 3.216561 15.370751 9.182654
H 2.787552 16.207126 9.362312
H 3.249229 15.318478 8.227642
O 6.244857 0.058726 3.005631
H 6.345685 0.975948 3.259377
H 7.140496 -0.272901 2.944782
O 6.144516 -0.118697 12.546713
H 6.666300 0.630403 12.259592
H 5.540998 0.243989 13.194845
O 6.178296 3.099599 0.099067
H 6.510942 3.515324 -0.696149
H 6.941471 2.665364 0.479662
O 6.300737 2.960886 15.586608
H 6.318967 3.362900 14.718334
H 7.079201 2.404724 15.609547
O 6.216251 12.450550 0.077491
H 6.471363 12.711767 -0.807118
H 6.956587 12.708410 0.626362
O 6.263343 12.419407 15.545131
H 6.809129 12.181177 14.795989
H 5.421030 12.661315 15.160634
O 6.323748 15.553013 2.991269
H 7.218773 15.566098 3.329807
H 6.421604 15.693844 2.049760
O 6.058343 15.504991 12.403610
H 6.644720 16.248894 12.267162
H 6.356796 14.846478 11.776605
O 9.244439 -0.038499 3.175354
H 8.999377 0.400414 2.361015
H 9.696499 -0.833189 2.892583
O 9.259421 -0.011691 12.488241
H 8.770205 -0.276745 13.266870
H 8.589674 0.117948 11.817062
O 9.325768 3.124964 0.082224
H 9.365759 2.169191 0.054875
H 9.743075 3.358627 0.911142
O 9.200917 3.073685 15.542656
H 9.663170 3.664181 14.948108
H 8.284551 3.343181 15.483543
O 9.282315 12.494911 -0.125142
H 8.923260 12.125950 -0.931862
H 9.759445 13.274172 -0.409656
O 9.426256 12.327682 15.645466
H 8.906386 12.070437 14.884276
H 8.905329 13.007275 16.072826
O 9.292014 15.522893 3.173539
H 8.721256 15.607547 3.937030
H 9.722202 16.374615 3.100351
O 9.433896 15.624595 12.391143
H 9.403049 16.465402 12.847149
H 9.234428 15.838713 11.479982
O 12.409404 -0.141698 6.193562
H 11.452793 -0.168142 6.186868
H 12.675272 -1.045848 6.027201
O 12.365303 0.039559 9.151431
H 12.828421 -0.678092 9.583111
H 11.699769 -0.392309 8.616264
O 12.515010 6.193302 0.034161
H 11.743718 6.503581 0.508168
H 13.248311 6.652752 0.442848
O 12.330903 6.064925 15.425554
H 12.060541 5.817660 14.541465
H 13.273391 5.899800 15.442890
O 12.437052 9.193367 0.070786
H 12.515749 8.739278 -0.767938
H 13.247791 8.983448 0.533913
O 12.253297 9.225097 15.531365
H 11.913865 10.081355 15.271639
H 11.962095 9.116402 16.436482
O 12.424488 15.566701 6.240242
H 13.019743 14.855355 6.475838
H 12.682516 16.292894 6.807617
O 12.385219 15.508314 9.312495
H 12.000960 16.382110 9.380871
H 12.421697 15.191324 10.214734
O 15.617320 3.088374 6.163110
H 15.534289 3.607573 5.363493
H 14.810762 3.263663 6.647453
O 15.436289 3.238669 9.182119
H 15.242281 3.007370 10.090254
H 16.378976 3.403306 9.172934
O 15.358119 6.335342 2.965470
H 15.023911 5.505266 2.626164
H 14.752270 6.568031 3.668786
O 15.399623 6.260543 12.359568
H 15.758365 5.446415 12.712199
H 14.633455 6.440439 12.904060
O 15.405045 9.313072 3.242756
H 14.916162 9.769105 2.558010
H 16.297664 9.256112 2.902409
O 15.492421 9.353208 12.286298
H 15.608558 10.000915 11.591433
H 16.347556 9.303698 12.713078
O 15.575168 12.539425 6.196782
H 14.640473 12.534207 5.991432
H 15.619471 12.284987 7.118274
O 15.597750 12.415242 9.411144
H 15.927003 12.616705 8.535442
H 15.630009 13.250425 9.877273
O 0.086339 3.174592 3.212768
H -0.336788 3.653192 3.925338
H -0.234522 2.277507 3.302961
O -0.126304 2.999226 12.411003
H -0.054496 2.051995 12.526963
H 0.610109 3.357734 12.905993
O -0.074823 12.301015 3.133429
H -0.374319 12.993065 3.722681
H 0.858591 12.210985 3.324432
O -0.007198 12.355157 12.503751
H -0.263341 11.646673 13.093912
H -0.433239 13.132778 12.863812
O 3.233099 0.121135 3.144352
H 3.610567 0.278680 2.279167
H 3.790106 0.618392 3.742956
O 3.191549 -0.119978 12.471538
H 2.327015 -0.379777 12.789239
H 3.280583 0.794350 12.739730
O 2.955659 3.166429 0.056995
H 3.301185 3.107154 0.947471
H 3.201409 2.336432 -0.351125
O 2.999625 3.161381 15.474072
H 3.345706 2.410567 15.956104
H 2.050814 3.098902 15.582250
O 3.132478 12.426814 -0.061865
H 3.435299 12.994980 -0.769916
H 2.320212 12.043881 -0.392674
O 3.180196 12.491029 15.504858
H 2.549144 11.811635 15.268116
H 3.103326 12.568655 16.455602
O 3.220165 15.421172 3.066162
H 3.920717 15.545997 2.426244
H 2.544887 14.937472 2.590891
O 3.062961 15.573204 12.371046
H 3.609343 16.350565 12.485180
H 2.733200 15.381143 13.248668
O 12.270280 0.067470 3.205704
H 11.758741 -0.605100 3.654955
H 13.086181 0.120093 3.703081
O 12.458070 -0.015531 12.542066
H 12.449323 -0.561874 13.327738
H 11.535127 0.085100 12.309902
